135 5
10 10 10 10 10 

0 0 0 0 0 0 2 2 14 
0 0 0 0 0 0 3 3 4 6 
5 0 0 1 0 0 2 10 5 
6 0 0 7 0 0 3 10 8 7 
6 0 0 4 0 0 2 8 7 
1 0 0 9 0 0 2 10 7 
9 0 0 10 0 0 2 11 9 
5 0 0 10 0 0 2 11 9 
5 0 0 10 0 0 1 12 
4 0 0 6 0 0 1 11 
2 0 0 9 0 0 1 13 
2 0 0 9 0 0 1 13 
0 0 0 0 0 0 1 26 
0 0 0 0 0 0 3 15 19 20 
4 0 0 0 0 2 2 17 16 
9 0 0 0 0 2 2 22 18 
4 0 0 0 0 10 2 22 18 
5 0 0 0 0 8 2 24 21 
3 0 0 0 0 9 2 22 21 
9 0 0 0 0 9 1 21 
9 0 0 0 0 10 1 23 
3 0 0 0 0 10 1 23 
2 0 0 0 0 5 1 25 
8 0 0 0 0 10 1 25 
0 0 0 0 0 0 1 26 
0 0 0 0 0 0 2 27 39 
0 0 0 0 0 0 5 28 30 31 33 37 
9 0 3 0 0 0 2 36 29 
4 0 8 0 0 0 1 32 
5 0 8 0 0 0 2 36 35 
7 0 2 0 0 0 2 36 35 
10 0 9 0 0 0 1 34 
8 0 9 0 0 0 1 34 
9 0 10 0 0 0 1 35 
5 0 10 0 0 0 1 38 
9 0 10 0 0 0 1 38 
2 0 6 0 0 0 1 38 
0 0 0 0 0 0 1 51 
0 0 0 0 0 0 5 40 41 43 45 49 
10 0 0 0 0 4 2 48 44 
8 0 0 0 0 6 1 42 
7 0 0 0 0 4 1 44 
7 0 0 0 0 10 1 44 
5 0 0 0 0 10 1 46 
7 0 0 0 0 10 1 46 
10 0 0 0 0 10 1 47 
8 0 0 0 0 6 1 50 
2 0 0 0 0 6 1 50 
10 0 0 0 0 9 1 50 
0 0 0 0 0 0 1 51 
0 0 0 0 0 0 2 52 64 
0 0 0 0 0 0 2 53 57 
6 0 0 0 1 0 4 62 59 56 54 
7 0 0 0 10 0 1 55 
10 0 0 0 10 0 2 61 58 
4 0 0 0 7 0 2 61 58 
2 0 0 0 9 0 2 62 60 
10 0 0 0 8 0 1 60 
8 0 0 0 9 0 1 61 
3 0 0 0 8 0 1 63 
7 0 0 0 4 0 1 63 
1 0 0 0 9 0 1 63 
0 0 0 0 0 0 1 76 
0 0 0 0 0 0 5 65 68 70 71 74 
10 0 0 0 0 1 1 66 
2 0 0 0 0 10 1 67 
7 0 0 0 0 10 2 73 69 
9 0 0 0 0 8 2 73 72 
2 0 0 0 0 8 1 72 
8 0 0 0 0 8 1 72 
6 0 0 0 0 6 1 72 
1 0 0 0 0 7 1 75 
8 0 0 0 0 10 1 75 
1 0 0 0 0 7 1 75 
0 0 0 0 0 0 1 76 
0 0 0 0 0 0 2 77 99 
0 0 0 0 0 0 10 78 85 90 91 92 93 94 95 96 97 
5 0 3 3 0 0 1 79 
5 0 3 5 0 0 2 89 80 
5 0 10 9 0 0 1 81 
7 0 10 10 0 0 1 82 
8 0 6 10 0 0 1 83 
4 0 10 6 0 0 1 84 
2 0 6 9 0 0 1 86 
7 0 10 10 0 0 1 86 
9 0 10 8 0 0 1 87 
7 0 9 8 0 0 1 88 
9 0 8 6 0 0 1 98 
7 0 8 4 0 0 1 98 
9 0 9 10 0 0 1 98 
1 0 8 6 0 0 1 98 
6 0 5 9 0 0 1 98 
7 0 10 4 0 0 1 98 
6 0 5 10 0 0 1 98 
3 0 6 7 0 0 1 98 
1 0 7 9 0 0 1 98 
2 0 7 7 0 0 1 98 
0 0 0 0 0 0 1 135 
0 0 0 0 0 0 1 100 
3 0 0 0 0 1 2 102 101 
6 0 0 0 0 5 4 109 106 104 103 
7 0 0 0 0 10 4 109 108 106 105 
1 0 0 0 0 9 2 108 105 
5 0 0 0 0 6 1 105 
1 0 0 0 0 9 1 107 
1 0 0 0 0 8 1 107 
8 0 0 0 0 10 1 110 
2 0 0 0 0 8 1 110 
2 0 0 0 0 9 1 110 
0 0 0 0 0 0 2 111 123 
0 0 0 0 0 0 5 112 114 117 118 121 
5 0 0 0 3 0 1 113 
2 0 0 0 10 0 1 115 
7 0 0 0 4 0 2 120 119 
3 0 0 0 7 0 1 116 
2 0 0 0 10 0 1 119 
7 0 0 0 7 0 1 120 
6 0 0 0 10 0 1 119 
9 0 0 0 10 0 1 122 
2 0 0 0 5 0 1 122 
4 0 0 0 9 0 1 122 
0 0 0 0 0 0 1 135 
0 0 0 0 0 0 1 124 
5 1 0 0 0 0 2 127 125 
10 7 0 0 0 0 2 128 126 
3 10 0 0 0 0 2 131 129 
7 7 0 0 0 0 2 133 130 
3 9 0 0 0 0 1 129 
5 10 0 0 0 0 2 133 132 
6 8 0 0 0 0 1 131 
8 8 0 0 0 0 1 132 
2 8 0 0 0 0 1 134 
3 7 0 0 0 0 1 134 
0 0 0 0 0 0 1 135 
0 0 0 0 0 0 0 
